5   18
6   4   1   12   2   15   3   13   4   11   2   5   18   6   22   2   7   20   8   25   3   9   35   10   30   11   40   4   12   20   13   18   14   15   15   22   3   16   15   17   12   18   10
6   4   1   10   2   13   3   11   4   9   2   5   15   6   18   2   7   18   8   22   3   9   28   10   25   11   30   4   12   25   13   22   14   20   15   23   3   16   12   17   10   18   8
6   4   1   25   2   30   3   28   4   22   2   5   28   6   32   2   7   25   8   30   3   9   50   10   45   11   55   4   12   28   13   25   14   23   15   30   3   16   20   17   18   18   15
6   4   1   8   2   10   3   9   4   7   2   5   12   6   15   2   7   12   8   16   3   9   25   10   23   11   28   4   12   18   13   15   14   12   15   17   3   16   10   17   8   18   6
6   4   1   7   2   9   3   8   4   6   2   5   10   6   12   2   7   14   8   18   3   9   20   10   18   11   22   4   12   15   13   13   14   10   15   14   3   16   8   17   6   18   5